
Gurobi 11.0.3 (linux64) logging started Mon 18 Nov 2024 08:36:48 PM CST

Set parameter LogFile to value "/home/dlcole3/graph_abstraction/hierarchical_graphs/git_storage/CS1/HP_low_reserves/gurobi_logs/serial/logfile_ST9_8.log"

Gurobi 11.0.3 (linux64) logging started Mon 18 Nov 2024 08:43:49 PM CST

Set parameter LogFile to value "/home/dlcole3/graph_abstraction/hierarchical_graphs/git_storage/CS1/HP_low_reserves/gurobi_logs/serial/logfile_ST9_8.log"
Gurobi Optimizer version 11.0.3 build v11.0.3rc0 (linux64 - "Ubuntu 18.04.3 LTS")

CPU model: Intel(R) Xeon(R) CPU E5-2698 v4 @ 2.20GHz, instruction set [SSE2|AVX|AVX2]
Thread count: 40 physical cores, 80 logical processors, using up to 20 threads

Optimize a model with 29168 rows, 50688 columns and 136175 nonzeros
Model fingerprint: 0xb5b32c09
Variable types: 46944 continuous, 3744 integer (3744 binary)
Coefficient statistics:
  Matrix range     [6e-01, 2e+04]
  Objective range  [2e+00, 2e+04]
  Bounds range     [5e-02, 2e+05]
  RHS range        [5e-02, 7e+03]
Presolve removed 14050 rows and 38696 columns
Presolve time: 0.36s
Presolved: 15118 rows, 11992 columns, 64368 nonzeros
Variable types: 8976 continuous, 3016 integer (3016 binary)
Found heuristic solution: objective 1820947.7573
Found heuristic solution: objective 1808651.1746

Root relaxation: objective 1.009054e+05, 8267 iterations, 0.49 seconds (0.40 work units)

    Nodes    |    Current Node    |     Objective Bounds      |     Work
 Expl Unexpl |  Obj  Depth IntInf | Incumbent    BestBd   Gap | It/Node Time

     0     0 100905.449    0   31 1808651.17 100905.449  94.4%     -    1s
H    0     0                    183649.57492 100905.449  45.1%     -    1s
H    0     0                    183649.57483 100905.449  45.1%     -    1s
     0     0 100905.449    0   31 183649.575 100905.449  45.1%     -    2s
     0     2 100905.449    0   31 183649.575 100905.449  45.1%     -    2s
H   31    52                    102519.55777 100959.244  1.52%  38.2    2s
H  322   317                    101564.67012 100959.244  0.60%  25.5    3s
H  574   445                    101291.21797 100975.133  0.31%  19.8    3s
H  762   458                    101285.18931 100975.133  0.31%  17.7    4s
*  829   490              50    101285.00589 100975.133  0.31%  16.9    4s
H 1000   522                    101279.96937 100992.442  0.28%  15.5    4s
H 1001   522                    101279.68011 100992.442  0.28%  15.4    4s
H 1022   522                    101273.51303 100992.442  0.28%  15.3    4s

Explored 1023 nodes (23939 simplex iterations) in 4.22 seconds (3.39 work units)
Thread count was 20 (of 80 available processors)

Solution count 10: 101274 101274 101280 ... 1.82095e+06

Optimal solution found (tolerance 3.00e-03)
Best objective 1.012735130323e+05, best bound 1.009924423092e+05, gap 0.2775%

User-callback calls 3670, time in user-callback 0.00 sec
